c	Created in graph generator tool by Shahar Bardugo & Dorin Matzrafi
c
p	sp 5 20
c	graph contains 5 nodes and 20 arcs
c
a	1	2	5
a	2	1	19
a	1	3	18
a	1	4	10
a	1	5	17
a	2	3	18
a	2	4	19
a	2	5	20
a	3	1	11
a	3	2	16
a	3	4	12
a	3	5	20
a	4	2	7
a	4	3	11
a	4	5	9
a	5	4	1
a	4	1	9
a	5	1	20
a	5	2	16
a	5	3	3
